(declare-datatypes () ((Nat (Z) (S (p Nat)))))
(declare-datatypes ()
  ((Tree (TNode (TNode_0 Tree) (TNode_1 Nat) (TNode_2 Tree))
     (TNil))))
(declare-datatypes () ((list (nil) (cons (head Nat) (tail list)))))
(declare-fun insert2 (Nat list) list)
(declare-fun isort (list) list)
(declare-fun flatten (Tree list) list)
(declare-fun add (Nat Tree) Tree)
(declare-fun toTree (list) Tree)
(declare-fun tsort (list) list)
(declare-fun le (Nat Nat) Bool)
(assert (forall ((x Nat)) (= (insert2 x nil) (cons x nil))))
(assert
  (forall ((x Nat) (z Nat) (xs list))
    (=> (= (le x z) true)
      (= (insert2 x (cons z xs)) (cons x (cons z xs))))))
(assert
  (forall ((x Nat) (z Nat) (xs list))
    (=> (= (le x z) false)
      (= (insert2 x (cons z xs)) (cons z (insert2 x xs))))))
(assert (= (isort nil) nil))
(assert
  (forall ((y Nat) (xs list))
    (= (isort (cons y xs)) (insert2 y (isort xs)))))
(assert
  (forall ((y list) (q Tree) (z Nat) (r Tree))
    (= (flatten (TNode q z r) y) (flatten q (cons z (flatten r y))))))
(assert (forall ((y list)) (= (flatten TNil y) y)))
(assert
  (forall ((x Nat) (q Tree) (z Nat) (r Tree))
    (=> (= (le x z) true)
      (= (add x (TNode q z r)) (TNode (add x q) z r)))))
(assert
  (forall ((x Nat) (q Tree) (z Nat) (r Tree))
    (=> (= (le x z) false)
      (= (add x (TNode q z r)) (TNode q z (add x r))))))
(assert (forall ((x Nat)) (= (add x TNil) (TNode TNil x TNil))))
(assert (= (toTree nil) TNil))
(assert
  (forall ((y Nat) (xs list))
    (= (toTree (cons y xs)) (add y (toTree xs)))))
(assert (forall ((x list)) (= (tsort x) (flatten (toTree x) nil))))
(assert (forall ((y Nat)) (= (le Z y) true)))
(assert (forall ((z Nat)) (= (le (S z) Z) false)))
(assert
  (forall ((z Nat) (x2 Nat)) (= (le (S z) (S x2)) (le z x2))))
(assert-not (forall ((x list)) (= (tsort x) (isort x))))
(check-sat)
